c turning on binary mode checking
c parsing input formula with 259840 variables and 1039924 clauses
c finished parsing, read 24072026 bytes from proof file
c detected empty clause; start verification via backward checking
c 14432 of 1039924 clauses in core                            
c 17904 of 618648 lemmas in core using 222499 resolution steps
c 0 RAT lemmas in core; 1935 redundant literals in core lemmas
s VERIFIED
c verification time: 3.111 seconds
